CMPL model generation - running

CMPL version: 1.11.0
Authors: Thomas Schleiff, Mike Steglich
Distributed under the GPLv3 

create model instance ...
write model instance ...
CMPL model generation - finished

Solver - running


Welcome to IBM(R) ILOG(R) CPLEX(R) Interactive Optimizer 12.7.1.0
  with Simplex, Mixed Integer & Barrier Optimizers
5725-A06 5725-A29 5724-Y48 5724-Y49 5724-Y54 5724-Y55 5655-Y21
Copyright IBM Corp. 1988, 2017.  All Rights Reserved.

Type 'help' for a list of available commands.
Type 'help' followed by a command name for more
information on commands.

CPLEX> Specified objective sense: MINIMIZE
Selected objective  name:  line[1]
Selected RHS        name:  RHS
Selected bound      name:  BOUND
Problem '/tmp/cmpl.T24167.mps' read.
Read time = 0.07 sec. (8.17 ticks)
CPLEX> CPXPARAM_Read_APIEncoding                        "UTF-8"
Tried aggregator 3 times.
MIP Presolve eliminated 19211 rows and 30649 columns.
MIP Presolve modified 340 coefficients.
Aggregator did 636 substitutions.
Reduced MIP has 2508 rows, 3308 columns, and 9650 nonzeros.
Reduced MIP has 3140 binaries, 0 generals, 0 SOSs, and 0 indicators.
Presolve time = 0.10 sec. (41.91 ticks)
Found incumbent of value 773.101989 after 0.17 sec. (64.33 ticks)
Probing fixed 11 vars, tightened 0 bounds.
Probing time = 0.02 sec. (4.28 ticks)
Tried aggregator 1 time.
MIP Presolve eliminated 0 rows and 11 columns.
MIP Presolve modified 51 coefficients.
Reduced MIP has 2508 rows, 3297 columns, and 9628 nonzeros.
Reduced MIP has 3297 binaries, 0 generals, 0 SOSs, and 0 indicators.
Presolve time = 0.02 sec. (8.19 ticks)
Probing time = 0.01 sec. (2.69 ticks)
Clique table members: 5958.
MIP emphasis: balance optimality and feasibility.
MIP search method: dynamic search.
Parallel mode: none, using 1 thread.
Root relaxation solution time = 0.01 sec. (4.81 ticks)

        Nodes                                         Cuts/
   Node  Left     Objective  IInf  Best Integer    Best Bound    ItCnt     Gap

*     0+    0                          773.1020      -20.2877           102.62%
      0     0      192.0102     7      773.1020      192.0102      145   75.16%
*     0+    0                          192.0739      192.0102             0.03%
      0     0      192.0703     1      192.0739      Cuts: 21      161    0.00%

GUB cover cuts applied:  2
Cover cuts applied:  12
Gomory fractional cuts applied:  5

Root node processing (before b&c):
  Real time             =    0.29 sec. (102.70 ticks)
Sequential b&c:
  Real time             =    0.00 sec. (0.00 ticks)
                          ------------
Total (root+branch&cut) =    0.29 sec. (102.70 ticks)

Solution pool: 2 solutions saved.

MIP - Integer optimal, tolerance (0.0001/1e-06):  Objective =  1.9207391400e+02
Current MIP best bound =  1.9207026750e+02 (gap = 0.0036465, 0.00%)
Solution time =    0.29 sec.  Iterations = 161  Nodes = 0 (1)
Deterministic time = 102.80 ticks  (356.79 ticks/sec)

CPLEX> Incumbent solution written to file '/tmp/cmpl.T24167.gsol'.
CPLEX> 
CMPL: Time used for model generation: 1 seconds
CMPL: Time used for solving the model: 1 seconds


Solution written to ASCII file: results/output_generated_conf_0.5/2016-11-07-4/fair-nonlinear.sol

Solver - finished
